Normalized Data/p10_28_normalized_split0.vrp
NAME:p10_28_NORMALIZED_split
BEST_KNOWN: 0
COMMENT: 0
DIMENSION: 859
CAPACITY: 100
EDGE_WEIGHT_FORMAT: FUNCTION
EDGE_WEIGHT_TYPE: EXACT_2D
NODE_COORD_SECTION
1 0.00000 0.00000
2 45 16
3 45 16
4 45 16
5 -49 -41
6 -49 -41
7 -49 -41
8 -49 -41
9 -49 -41
10 -9 -44
11 -9 -44
12 -33 30
13 -33 30
14 28 5
15 28 5
16 28 5
17 -42 -13
18 -42 -13
19 -42 -13
20 -42 -13
21 -42 -13
22 46 43
23 46 43
24 46 43
25 46 43
26 46 43
27 46 43
28 46 43
29 42 -7
30 42 -7
31 42 -7
32 20 44
33 20 44
34 20 44
35 20 44
36 -19 45
37 -19 45
38 -19 45
39 -19 45
40 -19 45
41 -19 45
42 -38 -20
43 -38 -20
44 -38 -20
45 -38 -20
46 -38 -20
47 -38 -20
48 -38 -20
49 47 -48
50 47 -48
51 47 -48
52 47 -48
53 47 -48
54 47 -48
55 48 23
56 48 23
57 48 23
58 -47 0
59 -47 0
60 -3 1
61 -3 1
62 -3 1
63 -3 1
64 -3 1
65 -3 1
66 -25 -43
67 -25 -43
68 -25 -43
69 -5 -25
70 -5 -25
71 14 -36
72 14 -36
73 14 -36
74 14 -36
75 -10 44
76 -10 44
77 -10 44
78 -10 44
79 -45 -25
80 -45 -25
81 -34 -39
82 -34 -39
83 -34 -39
84 -34 -39
85 45 8
86 45 8
87 45 8
88 45 8
89 45 8
90 29 -21
91 29 -21
92 29 -21
93 -38 16
94 -38 16
95 -38 16
96 -38 16
97 -38 16
98 -38 16
99 -42 39
100 -42 39
101 -42 39
102 -42 39
103 -42 39
104 -46 -39
105 -46 -39
106 -46 -39
107 -46 -39
108 -46 -39
109 -46 -39
110 6 -6
111 6 -6
112 6 -6
113 6 -6
114 12 41
115 12 41
116 12 41
117 12 41
118 50 50
119 50 50
120 0 -39
121 0 -39
122 0 -39
123 21 29
124 21 29
125 -28 23
126 -28 23
127 -28 23
128 -28 23
129 32 1
130 32 1
131 32 1
132 32 1
133 32 1
134 8 -10
135 8 -10
136 8 -10
137 42 -20
138 42 -20
139 42 -20
140 42 -20
141 42 -20
142 4 -37
143 4 -37
144 -27 -15
145 -27 -15
146 -27 -15
147 -27 -15
148 26 6
149 26 6
150 26 6
151 26 6
152 26 6
153 26 6
154 16 2
155 16 2
156 16 2
157 16 2
158 16 2
159 16 2
160 49 42
161 49 42
162 49 42
163 49 42
164 49 42
165 49 42
166 39 19
167 39 19
168 39 19
169 39 19
170 39 19
171 39 19
172 -43 -49
173 -43 -49
174 -43 -49
175 -43 -49
176 -43 -49
177 -21 -6
178 -21 -6
179 -21 -6
180 -21 -6
181 -21 -6
182 -21 -6
183 -21 -6
184 -41 -26
185 -41 -26
186 -41 -26
187 -41 -26
188 -41 -26
189 -41 -26
190 43 -20
191 43 -20
192 43 -20
193 43 -20
194 43 -20
195 -31 -31
196 -31 -31
197 -31 -31
198 1 -1
199 1 -1
200 1 -1
201 1 -1
202 1 -1
203 1 -1
204 -46 47
205 -46 47
206 -45 13
207 -45 13
208 -45 13
209 11 -26
210 11 -26
211 11 -26
212 11 -26
213 -18 5
214 -18 5
215 -18 5
216 -13 10
217 -13 10
218 -13 10
219 -35 -44
220 -35 -44
221 -35 -44
222 -35 -44
223 -35 -44
224 -35 -44
225 -36 -1
226 -36 -1
227 -36 -1
228 -36 -1
229 1 28
230 1 28
231 1 28
232 -18 -16
233 -18 -16
234 -18 -16
235 -18 -16
236 -18 -16
237 -31 -18
238 -31 -18
239 -31 -18
240 -31 -18
241 -31 -18
242 50 -49
243 50 -49
244 50 -49
245 8 -23
246 8 -23
247 8 -23
248 8 -23
249 8 -23
250 49 42
251 49 42
252 49 42
253 7 50
254 7 50
255 7 50
256 2 -49
257 2 -49
258 2 -49
259 2 -49
260 2 -49
261 2 -49
262 -15 14
263 -15 14
264 -15 14
265 -15 14
266 -15 14
267 -15 14
268 -17 0
269 -17 0
270 -17 0
271 -17 0
272 -17 0
273 46 -10
274 46 -10
275 46 -10
276 46 -10
277 -15 -29
278 -15 -29
279 -15 -29
280 -15 -29
281 -15 -29
282 5 28
283 5 28
284 5 28
285 12 -14
286 12 -14
287 12 -14
288 12 -14
289 12 -14
290 -20 -30
291 -20 -30
292 -20 -30
293 -20 -30
294 -13 24
295 -13 24
296 -13 24
297 -13 24
298 -13 24
299 -34 -30
300 -34 -30
301 -34 -30
302 -34 -30
303 -13 28
304 -13 28
305 -13 28
306 -13 28
307 -13 28
308 -2 -14
309 -2 -14
310 -2 -14
311 -2 -14
312 49 -34
313 49 -34
314 49 -34
315 -36 1
316 -36 1
317 37 16
318 37 16
319 0 -3
320 0 -3
321 0 -3
322 0 -3
323 0 -3
324 -37 7
325 -37 7
326 -37 7
327 32 -50
328 32 -50
329 32 -50
330 32 -50
331 16 36
332 16 36
333 16 36
334 16 36
335 16 36
336 7 12
337 7 12
338 7 12
339 7 12
340 7 12
341 7 12
342 -29 -47
343 -29 -47
344 -29 -47
345 -20 20
346 -20 20
347 -20 20
348 -20 20
349 -20 20
350 2 -33
351 2 -33
352 2 -33
353 -48 -19
354 -48 -19
355 -48 -19
356 -48 -19
357 -31 -7
358 -31 -7
359 -31 -7
360 16 3
361 16 3
362 16 3
363 -20 38
364 -20 38
365 -20 38
366 -20 38
367 -20 38
368 2 -38
369 2 -38
370 2 -38
371 2 -38
372 2 -38
373 35 8
374 35 8
375 35 8
376 35 8
377 35 8
378 35 8
379 9 -27
380 9 -27
381 9 -27
382 9 -27
383 9 -27
384 9 -27
385 9 -27
386 45 9
387 45 9
388 45 9
389 45 9
390 20 -32
391 20 -32
392 20 -32
393 20 -32
394 20 -32
395 20 -32
396 20 -32
397 -48 47
398 -48 47
399 -48 47
400 -48 47
401 24 48
402 24 48
403 24 48
404 24 48
405 24 48
406 24 48
407 24 48
408 0 -6
409 0 -6
410 5 0
411 5 0
412 5 0
413 5 0
414 5 0
415 5 0
416 22 0
417 22 0
418 22 0
419 22 0
420 -15 -30
421 -15 -30
422 -15 -30
423 -15 -30
424 -39 12
425 -39 12
426 -39 12
427 -39 12
428 -39 12
429 27 32
430 27 32
431 27 32
432 27 32
433 50 31
434 50 31
435 50 31
436 50 31
437 29 34
438 -3 34
439 -3 34
440 -3 34
441 -3 34
442 -3 34
443 -3 34
444 -46 31
445 -46 31
446 -46 31
447 -46 31
448 -46 31
449 20 12
450 20 12
451 20 12
452 20 12
453 20 12
454 -45 21
455 -45 21
456 33 5
457 33 5
458 33 5
459 33 5
460 33 5
461 -30 -29
462 -30 -29
463 -30 -29
464 -30 -29
465 -30 -29
466 47 -13
467 47 -13
468 47 -13
469 47 -13
470 47 -13
471 -27 12
472 -27 12
473 -27 12
474 -27 12
475 -27 12
476 10 33
477 10 33
478 10 33
479 10 33
480 10 33
481 10 33
482 10 33
483 45 46
484 45 46
485 45 46
486 45 46
487 14 -15
488 14 -15
489 14 -15
490 14 -15
491 14 -15
492 23 47
493 23 47
494 23 47
495 23 47
496 23 47
497 -48 23
498 -48 23
499 -48 23
500 -48 23
501 -48 23
502 8 -24
503 8 -24
504 8 -24
505 7 17
506 7 17
507 7 17
508 46 -26
509 11 1
510 11 1
511 11 1
512 11 1
513 11 1
514 11 1
515 11 1
516 -21 39
517 -21 39
518 -21 39
519 -1 -47
520 -1 -47
521 -1 -47
522 -1 -47
523 -1 -47
524 33 -37
525 33 -37
526 33 -37
527 33 -37
528 -8 -50
529 -8 -50
530 -8 -50
531 -8 -50
532 -8 -50
533 22 24
534 22 24
535 22 24
536 22 24
537 22 24
538 22 24
539 -32 -19
540 -32 -19
541 19 28
542 19 28
543 19 28
544 19 28
545 46 -5
546 46 -5
547 46 -5
548 46 -5
549 50 24
550 50 24
551 50 24
552 50 24
553 50 24
554 50 24
555 50 24
556 22 29
557 22 29
558 -15 -36
559 -15 -36
560 -15 -36
561 -15 -36
562 23 24
563 23 24
564 23 24
565 23 24
566 23 24
567 -49 -39
568 21 6
569 21 6
570 21 6
571 21 6
572 21 6
573 21 6
574 -19 27
575 -19 27
576 -19 27
577 -5 38
578 -5 38
579 -5 38
580 -5 38
581 -5 38
582 19 50
583 19 50
584 19 50
585 19 50
586 -33 -5
587 -33 -5
588 -33 -5
589 -33 -5
590 -33 -5
591 -33 -5
592 -33 -5
593 44 26
594 44 26
595 44 26
596 44 26
597 44 26
598 -9 -19
599 -9 -19
600 -9 -19
601 -9 -19
602 -9 -19
603 -9 -19
604 24 11
605 24 11
606 24 11
607 -5 -45
608 -5 -45
609 -5 -45
610 -5 -45
611 -5 -45
612 -44 31
613 -44 31
614 -44 31
615 -44 31
616 -44 31
617 -44 31
618 24 -25
619 24 -25
620 24 -25
621 24 -25
622 24 -25
623 -20 -43
624 -23 -15
625 -23 -15
626 -23 -15
627 2 -47
628 2 -47
629 2 -47
630 2 -47
631 2 -47
632 2 -47
633 3 20
634 3 20
635 3 20
636 3 20
637 3 20
638 25 -30
639 25 -30
640 25 -30
641 25 -30
642 6 -18
643 6 -18
644 6 -18
645 1 -43
646 1 -43
647 1 -43
648 1 -43
649 1 -43
650 1 -43
651 1 -43
652 -32 0
653 -32 0
654 -32 0
655 -32 0
656 -23 -24
657 -23 -24
658 -23 -24
659 -23 -24
660 -23 -24
661 -23 -24
662 -23 -24
663 15 -8
664 15 -8
665 15 -8
666 15 -8
667 15 -8
668 -37 22
669 -37 22
670 -37 22
671 -37 22
672 -37 22
673 33 -20
674 33 -20
675 33 -20
676 33 -20
677 -37 -46
678 -37 -46
679 35 14
680 35 14
681 35 14
682 -26 25
683 -26 25
684 -26 25
685 -26 25
686 45 -11
687 45 -11
688 45 -11
689 -44 -48
690 -44 -48
691 -44 -48
692 -44 -48
693 -44 -48
694 -19 41
695 -19 41
696 -40 29
697 -40 29
698 -40 29
699 -40 29
700 -43 13
701 -43 13
702 -43 13
703 -43 13
704 -43 13
705 -43 13
706 -42 -49
707 -42 -49
708 -42 -49
709 -42 -49
710 -9 39
711 -9 39
712 -9 39
713 -9 39
714 10 -5
715 10 -5
716 10 -5
717 10 -5
718 10 -5
719 10 -5
720 43 -25
721 43 -25
722 43 -25
723 43 -25
724 43 -25
725 43 -25
726 43 -25
727 -2 34
728 -2 34
729 -2 34
730 48 13
731 48 13
732 48 13
733 48 13
734 48 13
735 -49 10
736 -49 10
737 -49 10
738 -49 10
739 -49 10
740 -49 10
741 -49 10
742 5 37
743 5 37
744 5 37
745 5 37
746 5 37
747 5 37
748 -21 -25
749 -21 -25
750 -21 -25
751 -21 -25
752 -21 -25
753 -22 29
754 -22 29
755 29 9
756 29 9
757 -7 17
758 -7 17
759 29 -15
760 29 -15
761 29 -15
762 29 -15
763 29 -15
764 2 26
765 2 26
766 2 26
767 2 26
768 2 26
769 2 26
770 2 26
771 -45 5
772 -45 5
773 -45 5
774 -45 5
775 -37 20
776 -37 20
777 -37 20
778 -37 20
779 -37 20
780 -37 20
781 -25 15
782 -25 15
783 -25 15
784 43 -4
785 43 -4
786 43 -4
787 43 -4
788 43 -4
789 -24 -42
790 -24 -42
791 -25 13
792 -25 13
793 -25 13
794 6 3
795 6 3
796 6 3
797 6 3
798 14 5
799 14 5
800 14 5
801 -29 11
802 -29 11
803 -29 11
804 31 -48
805 31 -48
806 31 -48
807 31 -48
808 -47 -25
809 -47 -25
810 -47 -25
811 -47 -25
812 -21 -9
813 -21 -9
814 -21 -9
815 -21 -9
816 -21 -9
817 -6 31
818 -6 31
819 -6 31
820 -6 31
821 -6 31
822 -26 19
823 -26 19
824 -26 19
825 -26 19
826 -26 19
827 -26 19
828 -13 -41
829 -13 -41
830 -13 -41
831 -13 -41
832 -13 -41
833 -13 -41
834 -24 -26
835 -24 -26
836 -24 -26
837 -24 -26
838 -24 -26
839 31 -4
840 31 -4
841 31 -4
842 20 -6
843 20 -6
844 20 -6
845 20 -6
846 20 -6
847 20 -6
848 37 -1
849 37 -1
850 37 -1
851 37 -1
852 37 -1
853 32 -50
854 32 -50
855 32 -50
856 32 -50
857 32 -50
858 -16 -24
859 -16 -24
DEMAND_SECTION
1 0
2 20
3 20
4 1
5 20
6 20
7 5
8 1
9 1
10 20
11 20
12 20
13 5
14 20
15 1
16 1
17 20
18 10
19 1
20 1
21 1
22 20
23 20
24 5
25 1
26 1
27 1
28 1
29 20
30 20
31 10
32 20
33 1
34 1
35 1
36 20
37 10
38 5
39 1
40 1
41 1
42 20
43 20
44 5
45 1
46 1
47 1
48 1
49 20
50 20
51 1
52 1
53 1
54 1
55 20
56 10
57 1
58 20
59 20
60 20
61 20
62 1
63 1
64 1
65 1
66 10
67 1
68 1
69 20
70 5
71 20
72 20
73 1
74 1
75 20
76 10
77 5
78 1
79 20
80 1
81 20
82 20
83 5
84 1
85 10
86 5
87 1
88 1
89 1
90 20
91 5
92 1
93 20
94 10
95 5
96 1
97 1
98 1
99 20
100 10
101 1
102 1
103 1
104 20
105 20
106 5
107 1
108 1
109 1
110 20
111 20
112 1
113 1
114 20
115 20
116 1
117 1
118 20
119 20
120 20
121 10
122 5
123 10
124 5
125 20
126 10
127 1
128 1
129 20
130 5
131 1
132 1
133 1
134 20
135 10
136 1
137 20
138 20
139 1
140 1
141 1
142 20
143 10
144 10
145 1
146 1
147 1
148 20
149 10
150 5
151 1
152 1
153 1
154 20
155 10
156 5
157 1
158 1
159 1
160 20
161 20
162 1
163 1
164 1
165 1
166 10
167 5
168 1
169 1
170 1
171 1
172 20
173 5
174 1
175 1
176 1
177 20
178 20
179 5
180 1
181 1
182 1
183 1
184 20
185 20
186 1
187 1
188 1
189 1
190 20
191 1
192 1
193 1
194 1
195 20
196 20
197 1
198 20
199 20
200 5
201 1
202 1
203 1
204 20
205 20
206 20
207 5
208 1
209 10
210 1
211 1
212 1
213 20
214 20
215 5
216 20
217 5
218 1
219 20
220 5
221 1
222 1
223 1
224 1
225 10
226 1
227 1
228 1
229 20
230 5
231 1
232 20
233 5
234 1
235 1
236 1
237 20
238 10
239 5
240 1
241 1
242 10
243 5
244 1
245 20
246 10
247 5
248 1
249 1
250 20
251 20
252 10
253 20
254 1
255 1
256 20
257 20
258 1
259 1
260 1
261 1
262 10
263 5
264 1
265 1
266 1
267 1
268 20
269 20
270 5
271 1
272 1
273 10
274 1
275 1
276 1
277 20
278 1
279 1
280 1
281 1
282 20
283 1
284 1
285 20
286 20
287 5
288 1
289 1
290 10
291 5
292 1
293 1
294 20
295 20
296 1
297 1
298 1
299 20
300 20
301 1
302 1
303 20
304 10
305 1
306 1
307 1
308 20
309 5
310 1
311 1
312 20
313 5
314 1
315 20
316 20
317 20
318 5
319 20
320 5
321 1
322 1
323 1
324 20
325 20
326 1
327 20
328 20
329 5
330 1
331 20
332 10
333 5
334 1
335 1
336 20
337 10
338 5
339 1
340 1
341 1
342 20
343 20
344 1
345 20
346 5
347 1
348 1
349 1
350 20
351 1
352 1
353 20
354 20
355 5
356 1
357 20
358 10
359 5
360 20
361 20
362 5
363 20
364 20
365 1
366 1
367 1
368 20
369 1
370 1
371 1
372 1
373 10
374 5
375 1
376 1
377 1
378 1
379 20
380 10
381 5
382 1
383 1
384 1
385 1
386 20
387 1
388 1
389 1
390 20
391 10
392 5
393 1
394 1
395 1
396 1
397 20
398 10
399 1
400 1
401 20
402 20
403 5
404 1
405 1
406 1
407 1
408 10
409 5
410 10
411 5
412 1
413 1
414 1
415 1
416 20
417 1
418 1
419 1
420 20
421 1
422 1
423 1
424 20
425 10
426 5
427 1
428 1
429 20
430 10
431 5
432 1
433 20
434 20
435 5
436 1
437 20
438 10
439 5
440 1
441 1
442 1
443 1
444 10
445 5
446 1
447 1
448 1
449 20
450 10
451 1
452 1
453 1
454 20
455 10
456 20
457 10
458 1
459 1
460 1
461 10
462 1
463 1
464 1
465 1
466 20
467 20
468 5
469 1
470 1
471 20
472 20
473 5
474 1
475 1
476 20
477 20
478 5
479 1
480 1
481 1
482 1
483 20
484 10
485 5
486 1
487 20
488 10
489 1
490 1
491 1
492 20
493 5
494 1
495 1
496 1
497 20
498 5
499 1
500 1
501 1
502 20
503 10
504 1
505 20
506 10
507 5
508 20
509 20
510 20
511 5
512 1
513 1
514 1
515 1
516 20
517 20
518 5
519 20
520 10
521 1
522 1
523 1
524 20
525 1
526 1
527 1
528 20
529 10
530 1
531 1
532 1
533 10
534 5
535 1
536 1
537 1
538 1
539 20
540 10
541 20
542 20
543 1
544 1
545 20
546 20
547 5
548 1
549 20
550 10
551 5
552 1
553 1
554 1
555 1
556 10
557 5
558 20
559 20
560 1
561 1
562 20
563 10
564 5
565 1
566 1
567 20
568 10
569 5
570 1
571 1
572 1
573 1
574 20
575 20
576 1
577 10
578 5
579 1
580 1
581 1
582 10
583 1
584 1
585 1
586 20
587 20
588 5
589 1
590 1
591 1
592 1
593 20
594 10
595 1
596 1
597 1
598 20
599 10
600 1
601 1
602 1
603 1
604 20
605 20
606 5
607 20
608 10
609 5
610 1
611 1
612 20
613 20
614 1
615 1
616 1
617 1
618 20
619 20
620 1
621 1
622 1
623 20
624 10
625 5
626 1
627 20
628 10
629 1
630 1
631 1
632 1
633 20
634 10
635 1
636 1
637 1
638 20
639 10
640 1
641 1
642 20
643 20
644 1
645 20
646 20
647 5
648 1
649 1
650 1
651 1
652 20
653 10
654 1
655 1
656 20
657 20
658 5
659 1
660 1
661 1
662 1
663 20
664 20
665 1
666 1
667 1
668 20
669 10
670 1
671 1
672 1
673 20
674 10
675 5
676 1
677 20
678 20
679 20
680 20
681 10
682 20
683 1
684 1
685 1
686 20
687 10
688 1
689 10
690 1
691 1
692 1
693 1
694 20
695 1
696 20
697 20
698 5
699 1
700 20
701 10
702 1
703 1
704 1
705 1
706 10
707 1
708 1
709 1
710 20
711 20
712 1
713 1
714 10
715 5
716 1
717 1
718 1
719 1
720 20
721 20
722 5
723 1
724 1
725 1
726 1
727 10
728 5
729 1
730 20
731 10
732 5
733 1
734 1
735 20
736 10
737 5
738 1
739 1
740 1
741 1
742 10
743 5
744 1
745 1
746 1
747 1
748 10
749 1
750 1
751 1
752 1
753 20
754 10
755 20
756 10
757 20
758 10
759 20
760 10
761 5
762 1
763 1
764 20
765 20
766 5
767 1
768 1
769 1
770 1
771 20
772 10
773 1
774 1
775 10
776 5
777 1
778 1
779 1
780 1
781 10
782 5
783 1
784 20
785 5
786 1
787 1
788 1
789 20
790 20
791 20
792 20
793 5
794 10
795 1
796 1
797 1
798 10
799 5
800 1
801 20
802 20
803 5
804 20
805 20
806 1
807 1
808 20
809 20
810 5
811 1
812 20
813 20
814 5
815 1
816 1
817 10
818 5
819 1
820 1
821 1
822 20
823 10
824 5
825 1
826 1
827 1
828 20
829 10
830 1
831 1
832 1
833 1
834 20
835 20
836 5
837 1
838 1
839 20
840 20
841 10
842 20
843 20
844 1
845 1
846 1
847 1
848 10
849 5
850 1
851 1
852 1
853 20
854 10
855 5
856 1
857 1
858 20
859 1
DEPOT_SECTION
1
-1
EOF