Normalized Data/p10_28_normalized_split0.sol
858 -2 1 3 730 732 729 733 731 385 386 -9 831 828 829 830 827 832 622 559 557 280 277 -11 12 101 102 399 396 397 398 203 204 347 -13 377 375 376 374 373 372 457 455 458 459 456 129 128 132 131 130 -16 19 20 18 17 353 355 354 352 42 45 -24 23 26 21 164 159 249 162 160 251 163 -27 22 25 117 118 483 485 484 482 -31 34 32 33 494 493 491 492 495 405 400 401 402 404 406 403 -62 61 60 407 318 321 202 198 199 197 -64 63 59 213 212 214 217 215 216 -96 704 703 699 702 700 701 207 206 205 740 735 734 738 736 737 739 -103 108 691 688 689 690 692 171 174 173 175 172 706 705 707 708 676 220 292 749 748 -109 111 112 487 486 488 287 286 285 284 288 -110 133 641 642 307 -116 114 113 115 581 583 582 584 253 254 252 745 744 743 742 746 741 283 282 -119 255 256 257 260 259 258 626 629 627 631 628 630 -121 120 519 522 521 520 518 646 644 645 648 649 650 647 371 368 369 -135 134 390 391 389 394 395 393 392 70 73 72 71 380 381 384 382 -136 137 138 139 466 465 467 469 468 686 687 -140 192 191 190 193 189 507 724 719 723 725 721 722 720 674 -145 41 43 46 44 47 809 810 808 807 78 79 187 185 -157 153 156 155 154 158 509 510 514 512 511 513 508 414 413 409 411 -169 167 168 165 170 166 55 54 56 550 548 549 551 552 553 554 680 -178 180 182 179 181 224 227 226 225 315 314 654 651 652 653 269 270 -184 186 188 183 301 298 300 299 291 290 289 -200 201 526 525 52 53 50 49 51 48 241 242 243 311 313 312 759 -211 208 210 209 853 327 328 854 326 855 852 329 856 -231 233 656 660 659 655 657 658 747 857 858 -234 464 462 460 461 194 196 195 833 834 835 -235 232 107 104 106 105 6 5 7 8 4 566 -247 248 245 246 244 378 379 383 502 503 501 643 -250 161 433 432 434 435 594 592 593 595 596 -261 683 684 681 682 125 124 127 821 826 822 823 -263 262 266 293 295 294 304 302 305 303 756 -264 265 344 346 348 345 752 574 575 573 757 -268 267 176 177 811 -271 323 426 423 425 424 427 473 471 474 470 -296 297 364 362 366 363 365 515 517 516 753 -306 693 694 38 36 40 39 35 37 74 76 77 75 580 578 -308 10 529 527 530 531 528 606 610 607 608 609 408 -309 310 68 69 367 370 141 142 349 350 351 -316 317 679 678 754 755 14 15 569 570 571 -322 319 320 789 788 67 65 66 341 343 342 -325 324 770 773 772 771 57 58 589 587 -333 330 332 334 331 476 475 481 477 478 479 480 728 726 -336 335 337 506 505 504 633 632 -339 340 338 540 542 541 543 122 123 555 556 564 532 537 796 793 795 794 -359 360 361 147 152 151 149 150 148 572 567 568 -388 387 87 86 84 88 85 545 544 546 547 784 785 786 787 783 848 -412 410 799 798 797 605 604 603 449 450 448 452 451 -417 416 415 418 840 838 839 762 758 760 761 -454 453 496 500 498 497 499 443 444 446 447 445 615 616 614 613 611 -472 94 93 97 92 95 775 774 779 777 778 776 668 671 670 669 667 782 781 -535 536 534 533 430 431 429 428 436 563 561 562 565 -558 560 420 419 421 422 278 276 279 598 602 597 601 600 599 -586 588 591 585 590 358 357 356 814 815 812 -621 618 620 619 617 89 91 90 672 675 673 -625 623 624 539 538 239 238 236 237 240 143 144 146 813 -635 636 634 281 228 230 229 767 765 766 769 768 763 764 -661 837 836 463 82 80 81 83 677 221 219 223 218 222 750 751 -697 696 698 695 612 100 99 98 126 825 824 -713 717 714 664 662 665 663 666 844 842 841 -718 715 716 489 490 640 638 639 637 523 524 806 804 805 803 -727 440 441 437 438 439 442 579 576 577 712 711 710 709 818 819 820 816 817 -780 792 790 791 802 800 801 -845 843 846 685 275 272 274 273 30 28 29 847 851 849 850 0 





OBJ=
5916.828
BEST_KNOWN=
0.000